p cnf 383 1303
c ind 376 379 374 375 377 378 380 381 344 368 0
c ind 360 352 363 347 355 336 371 339 367 362 0
c ind 343 351 359 370 346 354 366 335 361 338 0
c ind 342 350 358 369 345 353 334 337 364 365 0
c ind 372 373 356 357 340 341 348 349 1 0
c ret 278 287 288 289 290 291 292 293 294 295 0
c ret 296 279 297 298 299 300 301 302 303 304 0
c ret 305 306 280 307 308 309 310 311 312 313 0
c ret 314 315 316 281 317 318 319 320 321 322 0
c ret 323 324 325 326 282 327 328 329 330 331 0
c ret 332 333 283 284 285 286 0
2 3 -151 -241 -254 0
-2 -3 0
-2 254 0
-2 241 0
-2 151 0
3 -4 -80 -142 -147 0
-3 147 0
-3 4 0
-3 142 0
-3 80 0
4 -5 -11 -16 -26 0
-4 26 0
-4 5 0
-4 16 0
-4 11 0
5 6 -9 -345 366 0
5 -6 -9 -345 -366 0
5 6 9 345 366 0
5 -6 9 345 -366 0
-5 -9 345 0
-5 9 -345 0
-5 6 -366 0
-5 -6 366 0
6 8 -358 0
6 7 8 0
-6 -8 0
-6 -7 358 0
7 364 -365 0
7 -364 365 0
-7 -364 -365 0
-7 364 365 0
8 359 -367 0
8 -359 367 0
-8 -359 -367 0
-8 359 367 0
9 -10 337 0
9 10 -337 0
-9 -10 -337 0
-9 10 337 0
10 340 -341 0
10 -340 341 0
-10 -340 -341 0
-10 340 341 0
11 12 -15 342 358 0
11 -12 -15 342 -358 0
11 -12 15 -342 -358 0
11 12 15 -342 358 0
-11 -15 -342 0
-11 15 342 0
-11 12 -358 0
-11 -12 358 0
12 13 14 0
12 13 -350 0
-12 -13 0
-12 -14 350 0
13 351 -359 0
13 -351 359 0
-13 -351 -359 0
-13 351 359 0
14 356 -357 0
14 -356 357 0
-14 -356 -357 0
-14 356 357 0
-10 15 334 0
10 15 -334 0
-10 -15 -334 0
10 -15 334 0
16 17 -21 23 363 0
16 17 21 23 -363 0
-16 -17 0
-16 -21 -363 0
-16 -23 0
-16 21 363 0
17 18 355 0
-17 -355 0
-17 -18 0
18 -19 -347 0
18 19 347 0
-18 -19 347 0
-18 19 -347 0
19 -20 -345 -346 0
-19 345 0
-19 346 0
-19 20 0
20 348 -349 0
20 -348 349 0
-20 -348 -349 0
-20 348 349 0
21 -22 -355 0
21 22 355 0
-21 -22 355 0
-21 22 -355 0
-14 22 -353 -354 0
-22 353 0
-22 354 0
14 -22 0
23 24 371 0
-23 -371 0
-23 -24 0
24 -25 -363 0
24 25 363 0
-24 -25 363 0
-24 25 -363 0
-7 25 -361 -362 0
-25 361 0
-25 362 0
7 -25 0
18 26 27 -74 0
26 27 -74 355 0
-26 74 0
-26 -27 0
-18 -26 -355 0
27 28 36 -43 0
27 28 39 -43 0
-27 -28 0
-27 43 0
-27 -36 -39 0
28 -29 -32 -34 -35 0
-28 35 0
-28 29 0
-28 34 0
-28 32 0
29 -30 -31 328 336 0
29 -30 -31 -328 -336 0
-29 31 0
-29 -328 336 0
-29 30 0
-29 328 -336 0
30 -331 335 0
30 -327 339 0
30 -327 -331 0
30 335 339 0
-30 331 -339 0
-30 327 -335 0
31 -330 332 -338 340 0
31 330 -332 338 -340 0
31 330 332 338 340 0
31 -330 -332 -338 -340 0
-31 -330 338 0
-31 330 -338 0
-31 332 -340 0
-31 -332 340 0
32 -33 -326 -334 0
32 -33 326 334 0
-32 33 0
-32 -326 334 0
-32 326 -334 0
33 -329 -335 0
33 327 337 0
33 327 -329 0
33 -335 337 0
-33 -327 335 0
-33 329 -337 0
34 329 331 0
34 -337 -339 0
34 329 -339 0
34 331 -337 0
-34 -329 337 0
-34 -331 339 0
35 -333 -341 0
35 333 341 0
-35 333 -341 0
-35 -333 341 0
36 -37 -38 329 353 0
36 -37 -38 -329 -353 0
-36 38 0
-36 -329 353 0
-36 37 0
-36 329 -353 0
37 -330 352 0
37 -328 354 0
37 -328 -330 0
37 352 354 0
-37 330 -354 0
-37 328 -352 0
38 -327 331 -351 355 0
38 327 -331 351 -355 0
38 327 331 351 355 0
38 -327 -331 -351 -355 0
-38 -327 351 0
-38 327 -351 0
-38 331 -355 0
-38 -331 355 0
39 -40 -41 332 356 0
39 -40 -41 -332 -356 0
-39 41 0
-39 -332 356 0
-39 40 0
-39 332 -356 0
40 -333 -352 0
40 328 357 0
40 328 -333 0
40 -352 357 0
-40 -328 352 0
-40 333 -357 0
41 -42 -326 -350 0
41 -42 326 350 0
-41 42 0
-41 -326 350 0
-41 326 -350 0
42 330 333 0
42 -354 -357 0
42 330 -357 0
42 333 -354 0
-42 -330 354 0
-42 -333 357 0
43 -44 59 70 0
43 -44 59 67 0
-43 44 0
-43 -59 0
-43 -67 -70 0
44 48 52 0
44 45 55 0
44 48 55 0
44 45 52 0
-44 -45 -48 0
-44 -52 -55 0
45 -46 -47 329 345 0
45 -46 -47 -329 -345 0
-45 47 0
-45 -329 345 0
-45 46 0
-45 329 -345 0
46 -330 344 0
46 -328 346 0
46 -328 -330 0
46 344 346 0
-46 330 -346 0
-46 328 -344 0
47 -327 331 -343 347 0
47 327 -331 343 -347 0
47 327 331 343 347 0
47 -327 -331 -343 -347 0
-47 -327 343 0
-47 327 -343 0
-47 331 -347 0
-47 -331 347 0
48 -49 -50 332 348 0
48 -49 -50 -332 -348 0
-48 50 0
-48 -332 348 0
-48 49 0
-48 332 -348 0
49 -333 -344 0
49 328 349 0
49 328 -333 0
49 -344 349 0
-49 -328 344 0
-49 333 -349 0
50 -51 -326 -342 0
50 -51 326 342 0
-50 51 0
-50 -326 342 0
-50 326 -342 0
51 330 333 0
51 -346 -349 0
51 330 -349 0
51 333 -346 0
-51 -330 346 0
-51 -333 349 0
52 -53 -54 328 360 0
52 -53 -54 -328 -360 0
-52 54 0
-52 -328 360 0
-52 53 0
-52 328 -360 0
53 -331 359 0
53 -327 363 0
53 -327 -331 0
53 359 363 0
-53 331 -363 0
-53 327 -359 0
54 -330 332 -362 364 0
54 330 -332 362 -364 0
54 330 332 362 364 0
54 -330 -332 -362 -364 0
-54 -330 362 0
-54 330 -362 0
-54 332 -364 0
-54 -332 364 0
55 -56 -58 333 365 0
55 -56 -58 -333 -365 0
-55 58 0
-55 -333 365 0
-55 56 0
-55 333 -365 0
56 -57 -326 -358 0
56 -57 326 358 0
-56 57 0
-56 -326 358 0
-56 326 -358 0
57 -329 -359 0
57 327 361 0
57 327 -329 0
57 -359 361 0
-57 -327 359 0
-57 329 -361 0
58 329 331 0
58 -361 -363 0
58 329 -363 0
58 331 -361 0
-58 -329 361 0
-58 -331 363 0
59 -60 -63 -65 -66 0
-59 66 0
-59 60 0
-59 65 0
-59 63 0
60 -61 -62 329 369 0
60 -61 -62 -329 -369 0
-60 62 0
-60 -329 369 0
-60 61 0
-60 329 -369 0
61 -330 368 0
61 -328 370 0
61 -328 -330 0
61 368 370 0
-61 330 -370 0
-61 328 -368 0
62 -327 331 -367 371 0
62 327 -331 367 -371 0
62 327 331 367 371 0
62 -327 -331 -367 -371 0
-62 -327 367 0
-62 327 -367 0
-62 331 -371 0
-62 -331 371 0
63 -64 -332 -372 0
63 -64 332 372 0
-63 64 0
-63 -332 372 0
-63 332 -372 0
64 -333 -368 0
64 328 373 0
64 328 -333 0
64 -368 373 0
-64 -328 368 0
-64 333 -373 0
65 330 333 0
65 -370 -373 0
65 330 -373 0
65 333 -370 0
-65 -330 370 0
-65 -333 373 0
66 -326 -366 0
66 326 366 0
-66 326 -366 0
-66 -326 366 0
67 -68 -69 328 376 0
67 -68 -69 -328 -376 0
-67 69 0
-67 -328 376 0
-67 68 0
-67 328 -376 0
68 -331 375 0
68 -327 379 0
68 -327 -331 0
68 375 379 0
-68 331 -379 0
-68 327 -375 0
69 -330 332 -378 380 0
69 330 -332 378 -380 0
69 330 332 378 380 0
69 -330 -332 -378 -380 0
-69 -330 378 0
-69 330 -378 0
-69 332 -380 0
-69 -332 380 0
70 -71 -72 326 374 0
70 -71 -72 -326 -374 0
-70 72 0
-70 -326 374 0
-70 71 0
-70 326 -374 0
71 -329 -375 0
71 327 377 0
71 327 -329 0
71 -375 377 0
-71 -327 375 0
-71 329 -377 0
72 -73 -333 -381 0
72 -73 333 381 0
-72 73 0
-72 -333 381 0
-72 333 -381 0
73 329 331 0
73 -377 -379 0
73 329 -379 0
73 331 -377 0
-73 -329 377 0
-73 -331 379 0
74 78 350 379 0
74 -78 -350 379 0
74 75 -78 -350 0
74 75 78 350 0
-74 -78 350 0
-74 78 -350 0
-74 -75 -379 0
75 -76 -371 0
75 76 371 0
-75 -76 371 0
-75 76 -371 0
76 -77 -369 -370 0
-76 369 0
-76 370 0
-76 77 0
77 372 -373 0
77 -372 373 0
-77 -372 -373 0
-77 372 373 0
78 79 -342 0
20 78 79 0
-78 -79 0
-20 -78 342 0
79 343 -351 0
79 -343 351 0
-79 -343 -351 0
-79 343 351 0
80 -81 -101 -112 -113 0
-80 113 0
-80 81 0
-80 112 0
-80 101 0
81 -82 -95 97 -346 0
81 -82 95 97 346 0
-81 -97 0
-81 95 -346 0
-81 82 0
-81 -95 346 0
82 -83 89 -91 -92 0
82 -83 -89 91 -92 0
-82 92 0
-82 -89 -91 0
-82 83 0
-82 89 91 0
83 84 -85 87 0
83 -84 85 -374 0
83 84 -85 -374 0
83 -84 85 87 0
-83 -84 -85 0
-83 84 85 0
-83 -87 374 0
-10 84 -334 0
-84 334 0
10 -84 0
85 -86 -343 0
85 86 343 0
-85 -86 343 0
-85 86 -343 0
86 334 -335 0
86 -334 335 0
-86 -334 -335 0
-86 334 335 0
87 88 -366 0
77 87 88 0
-87 -88 0
-77 -87 366 0
88 367 -375 0
88 -367 375 0
-88 -367 -375 0
-88 367 375 0
89 -90 -367 0
-89 367 0
-89 90 0
77 90 -366 0
-90 366 0
-77 -90 0
91 -368 -376 0
91 368 376 0
-91 368 -376 0
-91 -368 376 0
-20 92 93 374 0
20 -87 92 -93 0
20 92 -93 374 0
-20 -87 92 93 0
20 -92 93 0
-20 -92 -93 0
87 -92 -374 0
93 94 -345 0
93 94 353 0
-93 -94 0
-93 345 -353 0
94 346 -354 0
94 -346 354 0
-94 -346 -354 0
-94 346 354 0
95 -96 338 0
95 96 -338 0
-95 -96 -338 0
-95 96 338 0
-10 96 -337 0
-96 337 0
10 -96 0
97 -98 -352 0
-97 352 0
-97 98 0
98 -99 -344 0
98 99 344 0
-98 -99 344 0
-98 99 -344 0
99 -100 -343 0
-99 343 0
-99 100 0
20 100 -342 0
-100 342 0
-20 -100 0
14 101 -104 -107 0
101 102 -104 -107 0
-101 107 0
-101 104 0
-14 -101 -102 0
102 103 -353 0
102 103 361 0
-102 -103 0
-102 353 -361 0
103 354 -362 0
103 -354 362 0
-103 -354 -362 0
-103 354 362 0
-7 8 104 0
8 104 -105 0
7 104 -105 -358 0
7 -104 105 0
-7 -8 -104 0
-8 -104 358 0
105 106 -361 0
105 106 369 0
-105 -106 0
-105 361 -369 0
106 362 -370 0
106 -362 370 0
-106 -362 -370 0
-106 362 370 0
88 90 107 108 110 0
-88 -90 107 108 110 0
-107 -108 0
-88 90 -107 0
-107 -110 0
88 -90 -107 0
8 108 -109 0
-8 -108 0
-108 109 0
7 109 -358 0
-109 358 0
-7 -109 0
13 110 -111 0
-13 -110 0
-110 111 0
14 111 -350 0
-111 350 0
-14 -111 0
24 112 -379 0
-75 112 371 0
112 371 -379 0
24 -75 112 0
75 -112 379 0
-24 -112 -371 0
113 -114 -136 -138 -139 0
-113 139 0
-113 114 0
-113 138 0
-113 136 0
114 -115 -121 -124 -129 0
-114 129 0
-114 115 0
-114 124 0
-114 121 0
115 -116 -117 -118 -119 0
-115 119 0
-115 116 0
-115 118 0
-115 117 0
116 340 341 0
-116 -340 0
-116 -341 0
117 334 335 0
-117 -334 0
-117 -335 0
118 349 -373 0
118 356 364 0
118 356 -373 0
118 349 364 0
-118 -349 -356 0
-118 -364 373 0
119 -120 349 -356 -365 0
-119 -349 0
-119 120 0
-119 365 0
-119 356 0
120 336 337 338 339 0
-120 -339 0
-120 -338 0
-120 -336 0
-120 -337 0
121 123 -377 0
121 -122 123 0
121 123 369 0
-121 -123 0
-121 122 -369 377 0
122 370 -378 0
122 -370 378 0
-122 -370 -378 0
-122 370 378 0
123 348 -357 0
123 -348 -373 0
123 -348 -364 0
123 357 364 0
-123 348 357 -364 0
-123 -348 -357 364 373 0
124 125 -127 -128 0
124 126 -127 -128 0
-124 128 0
-124 127 0
-124 -125 -126 0
10 125 -334 -335 0
-125 334 0
-125 335 0
-10 -125 0
126 -336 -344 0
126 336 344 0
-126 336 -344 0
-126 -336 344 0
127 -365 372 -373 380 0
127 365 -372 373 -380 0
127 -365 372 373 -380 0
127 365 -372 -373 380 0
-127 -365 -372 0
-127 365 372 0
-127 373 380 0
-127 -373 -380 0
128 341 -348 -372 -381 0
128 -341 348 -372 -381 0
128 341 -348 372 381 0
128 -341 348 372 381 0
-128 372 -381 0
-128 -372 381 0
-128 -341 -348 0
-128 341 348 0
94 129 -130 133 -134 0
-94 129 -130 -133 -134 0
-129 134 0
-94 -129 133 0
-129 130 0
94 -129 -133 0
-103 130 -131 132 0
103 130 131 132 0
103 -106 130 131 0
-103 -106 130 -131 0
-103 -130 131 0
103 -130 -131 0
106 -130 -132 0
131 -353 361 0
-131 353 0
-131 -361 0
132 -361 369 0
-132 361 0
-132 -369 0
133 -345 353 0
-133 345 0
-133 -353 0
106 134 135 0
134 135 -361 369 0
-134 -135 0
-106 -134 -369 0
-106 -134 361 0
-122 135 -377 0
-122 135 369 0
122 -135 0
-135 -369 377 0
-77 -111 136 0
13 136 -137 0
13 -77 136 0
-111 136 -137 0
77 -136 137 0
-13 111 -136 0
122 137 -369 0
122 137 377 0
-122 -137 0
-137 369 -377 0
-14 105 138 0
7 -102 138 0
7 -14 138 0
-102 105 138 0
-7 -105 -138 0
14 102 -138 0
79 100 139 140 141 0
-79 -100 139 140 141 0
-139 -140 0
-79 100 -139 0
-139 -141 0
79 -100 -139 0
125 140 336 -344 0
125 140 -336 344 0
-125 -140 0
-140 336 344 0
-140 -336 -344 0
-77 -137 141 0
77 -141 0
137 -141 0
142 -143 145 -347 0
142 143 145 347 0
142 -143 -347 368 0
142 143 347 368 0
-142 143 -347 0
-142 -143 347 0
-142 -145 -368 0
143 -144 339 0
143 144 -339 0
-143 -144 -339 0
-143 144 339 0
-96 144 -338 0
-144 338 0
96 -144 0
145 -146 -360 0
145 146 360 0
-145 -146 360 0
-145 146 -360 0
-109 146 -359 0
-146 359 0
109 -146 0
147 -148 -149 360 0
147 -148 149 -360 0
-147 148 0
-147 -149 -360 0
-147 149 360 0
-98 148 -368 0
-145 148 -352 0
148 -352 -368 0
-98 -145 148 0
145 -148 368 0
98 -148 352 0
149 -150 -352 0
149 150 352 0
-149 -150 352 0
-149 150 -352 0
-111 150 -351 0
-150 351 0
111 -150 0
151 -156 -165 291 0
151 -152 -156 -165 0
-151 165 0
-151 156 0
-151 152 -291 0
152 -153 283 0
152 153 -283 0
-152 -153 -283 0
-152 153 283 0
153 -154 -282 0
-153 282 0
-153 154 0
154 -155 -281 0
-154 281 0
-154 155 0
155 284 -285 0
155 -284 285 0
-155 -284 -285 0
-155 284 285 0
156 -296 312 0
156 -157 161 0
156 161 -296 0
156 -157 312 0
-156 157 296 0
-156 -161 -312 0
157 -158 -288 0
157 158 288 0
-157 -158 288 0
-157 158 -288 0
158 -159 -287 0
-158 287 0
-158 159 0
159 160 -286 0
-159 286 0
-159 -160 0
160 292 -293 0
160 -292 293 0
-160 -292 -293 0
-160 292 293 0
161 -162 -304 0
161 162 304 0
-161 -162 304 0
-161 162 -304 0
162 -163 -303 0
-162 303 0
-162 163 0
163 164 -302 0
-163 302 0
-163 -164 0
164 308 -309 0
164 -308 309 0
-164 -308 -309 0
-164 308 309 0
165 -166 -183 -188 -211 0
-165 211 0
-165 166 0
-165 188 0
-165 183 0
166 167 169 -172 294 0
166 -167 169 -172 -294 0
-166 -169 0
-166 -167 294 0
-166 172 0
-166 167 -294 0
167 168 -286 0
160 167 168 0
-167 -168 0
-160 -167 286 0
168 287 -295 0
168 -287 295 0
-168 -287 -295 0
-168 287 295 0
169 -170 310 0
-169 -310 0
-169 170 0
170 171 -302 0
164 170 171 0
-170 -171 0
-164 -170 302 0
171 303 -311 0
171 -303 311 0
-171 -303 -311 0
-171 303 311 0
172 173 177 179 326 0
172 173 -177 179 -326 0
-172 -173 0
-172 177 -326 0
-172 -179 0
-172 -177 326 0
173 -174 -175 0
173 174 175 0
-173 174 -175 0
-173 -174 175 0
174 324 -325 0
174 -324 325 0
-174 -324 -325 0
-174 324 325 0
175 176 -321 0
175 176 329 0
-175 -176 0
-175 321 -329 0
176 322 -330 0
176 -322 330 0
-176 -322 -330 0
-176 322 330 0
177 178 -318 0
174 177 178 0
-177 -178 0
-174 -177 318 0
178 319 -327 0
178 -319 327 0
-178 -319 -327 0
-178 319 327 0
179 180 -318 0
-179 318 0
-179 -180 0
180 181 182 0
180 181 -310 0
-180 -181 0
-180 -182 310 0
181 311 -319 0
181 -311 319 0
-181 -311 -319 0
-181 311 319 0
182 316 -317 0
182 -316 317 0
-182 -316 -317 0
-182 316 317 0
183 -184 -291 0
152 183 296 0
152 183 -184 0
183 -291 296 0
-183 184 -296 0
-152 -183 291 0
184 -185 304 0
184 185 -304 0
-184 -185 -304 0
-184 185 304 0
185 -186 -295 0
-185 295 0
-185 186 0
186 187 -294 0
-186 294 0
-186 -187 0
187 300 -301 0
187 -300 301 0
-187 -300 -301 0
-187 300 301 0
188 -189 -192 -196 -202 0
-188 202 0
-188 189 0
-188 196 0
-188 192 0
-163 189 190 0
171 187 189 0
171 189 190 0
-163 187 189 0
163 -171 -189 0
-187 -189 -190 0
190 191 -297 0
190 191 305 0
-190 -191 0
-190 297 -305 0
191 298 -306 0
191 -298 306 0
-191 -298 -306 0
-191 298 306 0
-181 192 -193 0
-164 192 195 0
-164 -181 192 0
192 -193 195 0
181 -192 -195 0
164 -192 193 0
193 194 -305 0
193 194 313 0
-193 -194 0
-193 305 -313 0
194 306 -314 0
194 -306 314 0
-194 -306 -314 0
-194 306 314 0
182 195 -310 0
-195 310 0
-182 -195 0
-182 196 -199 -201 0
196 -197 -199 -201 0
-196 201 0
-196 199 0
182 -196 197 0
197 198 -313 0
197 198 321 0
-197 -198 0
-197 313 -321 0
198 314 -322 0
198 -314 322 0
-198 -314 -322 0
-198 314 322 0
199 -200 -308 0
199 -200 -292 317 0
-199 200 0
-199 308 -317 0
-199 292 308 0
200 309 -316 -324 -333 0
200 -309 316 -324 -333 0
200 309 -316 324 333 0
200 -309 316 324 333 0
-200 324 -333 0
-200 -324 333 0
-200 -309 -316 0
-200 309 316 0
-171 181 201 0
163 -195 201 0
163 181 201 0
-171 -195 201 0
-163 171 -201 0
-181 195 -201 0
160 202 -203 -205 -207 0
-160 202 203 -205 -207 0
-202 207 0
160 -202 203 0
-202 205 0
-160 -202 -203 0
203 204 -289 0
203 204 297 0
-203 -204 0
-203 289 -297 0
204 290 -298 0
204 -290 298 0
-204 -290 -298 0
-204 290 298 0
-159 205 206 0
168 -178 205 0
168 205 206 0
-159 -178 205 0
159 -168 -205 0
178 -205 -206 0
174 206 -318 0
-206 318 0
-174 -206 0
-187 207 -208 210 0
-190 207 -208 210 0
-207 208 0
-207 -210 0
187 190 -207 0
-168 186 208 0
159 208 -209 0
159 186 208 0
-168 208 -209 0
-159 168 -208 0
-186 -208 209 0
209 295 -303 0
209 -295 303 0
-209 -295 -303 0
-209 295 303 0
-182 -197 210 0
182 -210 0
197 -210 0
211 -212 213 -214 -215 0
211 -212 -213 214 -215 0
-211 215 0
-211 -213 -214 0
-211 212 0
-211 213 214 0
-170 212 -318 0
180 212 310 0
212 310 -318 0
-170 180 212 0
170 -212 -310 0
-180 -212 318 0
-206 213 -319 0
-213 319 0
206 -213 0
214 -320 -328 0
214 320 328 0
-214 320 -328 0
-214 -320 328 0
215 -216 -221 -234 -237 0
-215 237 0
-215 216 0
-215 234 0
-215 221 0
204 216 217 -218 220 0
-204 216 -217 -218 220 0
-216 -220 0
-204 -216 217 0
-216 218 0
204 -216 -217 0
217 -289 297 0
-217 289 0
-217 -297 0
218 -219 325 -332 0
218 -219 -325 332 0
-218 219 0
-218 325 332 0
-218 -325 -332 0
219 -301 308 0
219 292 -317 0
219 292 308 0
219 -301 -317 0
-219 -292 301 0
-219 -308 317 0
194 220 -305 313 0
-220 305 0
-194 -220 0
-220 -313 0
221 -222 -225 -228 -231 0
-221 231 0
-221 222 0
-221 228 0
-221 225 0
222 223 224 316 325 0
222 223 224 -316 -325 0
-222 -223 0
-222 -316 325 0
-222 -224 0
-222 316 -325 0
223 293 309 0
-223 -293 0
-223 -309 0
224 -284 293 0
-224 284 0
-224 -293 0
225 -226 -227 -317 0
225 -226 -227 -324 0
-225 227 0
-225 226 0
-225 317 324 0
226 284 285 0
-226 -284 0
-226 -285 0
227 280 281 282 283 0
-227 -283 0
-227 -282 0
-227 -280 0
-227 -281 0
228 229 230 285 -292 0
228 229 230 -285 292 0
-228 -229 0
-228 285 292 0
-228 -230 0
-228 -285 -292 0
229 -301 -308 0
-229 301 0
-229 308 0
230 -293 -300 0
-230 293 0
-230 300 0
231 -232 -233 317 0
231 -232 -233 324 0
-231 233 0
-231 232 0
-231 -317 -324 0
232 278 279 0
-232 -278 0
-232 -279 0
233 -284 309 0
233 293 -300 0
233 293 309 0
233 -284 -300 0
-233 284 -293 0
-233 300 -309 0
176 191 234 236 0
-191 234 -235 -236 0
176 -191 234 -236 0
191 234 -235 236 0
191 -234 -236 0
-191 -234 236 0
-176 -234 235 0
235 -321 329 0
-235 321 0
-235 -329 0
236 -297 305 0
-236 297 0
-236 -305 0
198 237 238 239 240 0
-198 237 238 -239 240 0
-237 -238 0
-198 -237 239 0
-237 -240 0
198 -237 -239 0
-194 238 -313 0
-194 238 305 0
194 -238 0
-238 -305 313 0
239 -313 321 0
-239 313 0
-239 -321 0
176 240 -321 329 0
-240 321 0
-176 -240 0
-240 -329 0
241 242 -244 -312 0
-161 241 -242 -244 0
-241 244 0
-241 242 312 0
161 -241 -242 0
242 -243 -320 0
242 243 320 0
-242 -243 320 0
-242 243 -320 0
-195 243 -311 0
-243 311 0
195 -243 0
184 244 -245 0
157 244 -245 -296 0
-244 245 0
-157 -184 -244 0
-184 -244 296 0
245 246 -249 251 307 0
245 246 249 251 -307 0
-245 -246 0
-245 -249 -307 0
-245 -251 0
-245 249 307 0
246 247 -278 -279 0
246 247 278 279 0
-246 -247 0
-246 -278 279 0
-246 278 -279 0
247 -248 -287 0
247 248 287 0
-247 -248 287 0
-247 248 -287 0
-155 248 -278 0
-248 278 0
155 -248 0
249 -250 -299 0
249 250 299 0
-249 -250 299 0
-249 250 -299 0
-187 250 -297 -298 0
-250 297 0
-250 298 0
187 -250 0
251 -252 -315 0
-251 315 0
-251 252 0
252 -253 -307 0
252 253 307 0
-252 -253 307 0
-252 253 -307 0
-164 253 -305 -306 0
-253 305 0
-253 306 0
164 -253 0
254 -255 -260 -263 -268 0
-254 268 0
-254 255 0
-254 263 0
-254 260 0
255 256 -288 0
255 -258 331 0
255 256 -258 0
255 -288 331 0
-255 -256 -331 0
-255 258 288 0
256 -257 -323 0
256 257 323 0
-256 -257 323 0
-256 257 -323 0
-174 257 -321 -322 0
-257 321 0
-257 322 0
174 -257 0
258 -259 -280 0
258 259 280 0
-258 -259 280 0
-258 259 -280 0
155 259 -278 -279 0
-259 278 0
-259 279 0
-155 -259 0
260 -315 323 0
-252 260 261 0
260 261 -315 0
-252 260 323 0
252 -260 315 0
-260 -261 -323 0
261 -262 -315 0
261 262 315 0
-261 -262 315 0
-261 262 -315 0
-182 262 -313 -314 0
-262 313 0
-262 314 0
182 -262 0
263 -264 -266 -323 0
-261 263 -264 -266 0
-263 266 0
-263 264 0
261 -263 323 0
-206 264 -265 0
178 264 -265 0
-264 265 0
-178 206 -264 0
164 -186 265 0
193 209 265 0
-186 193 265 0
164 209 265 0
186 -209 -265 0
-164 -193 -265 0
258 266 -267 286 0
266 267 -286 288 0
266 -267 286 288 0
258 266 267 -286 0
-266 -267 -286 0
-266 267 286 0
-258 -266 -288 0
-155 267 278 0
155 267 -278 0
-155 -267 -278 0
155 -267 278 0
268 269 -270 -273 290 0
268 -269 -270 -273 -290 0
-268 273 0
-268 269 -290 0
-268 270 0
-268 -269 290 0
-154 269 282 0
154 269 -282 0
-154 -269 -282 0
154 -269 282 0
270 271 272 302 0
270 271 -272 -302 0
247 270 -272 -302 0
247 270 272 302 0
-270 -272 302 0
-270 272 -302 0
-247 -270 -271 0
271 278 -279 0
271 -278 279 0
-271 -278 -279 0
-271 278 279 0
209 272 -294 0
187 209 272 0
-209 -272 0
-187 -272 294 0
273 -274 -276 299 0
273 -274 276 -299 0
-273 274 0
-273 -276 -299 0
-273 276 299 0
274 275 289 -331 0
-256 274 -275 -289 0
274 -275 -289 -331 0
-256 274 275 289 0
-274 -275 289 0
-274 275 -289 0
256 -274 331 0
-155 275 281 0
155 275 -281 0
-155 -275 -281 0
155 -275 281 0
276 -277 -291 0
276 277 291 0
-276 -277 291 0
-276 277 -291 0
-160 277 -289 -290 0
-277 289 0
-277 290 0
160 -277 0
1 2 0
-1 -2 0
382 0

